189	32	4	147	
10	10	10	10

0	0	0	0	0	0	3	1	6	10
1	1	1	1	0	7	2	5	2
2	6	4	0	1	2	2	8	3
3	5	8	0	5	7	1	4
4	6	3	0	2	10	1	7
5	5	6	0	5	3	1	7
6	6	0	4	5	7	1	8
7	5	7	3	0	3	1	9
8	3	6	0	3	8	1	9
9	2	1	4	0	10	1	11
10	7	6	5	0	3	1	11
11	5	4	4	0	10	2	30	12
12	4	5	1	0	9	1	13
13	4	0	2	5	5	1	14
14	2	3	0	3	1	1	15
15	2	0	4	6	3	1	16
16	3	6	0	5	9	2	25	17
17	7	3	7	0	8	2	29	18
18	4	5	0	3	10	1	19
19	2	2	0	4	9	2	28	20
20	1	2	0	3	9	1	21
21	1	0	3	7	8	2	27	22
22	0	3	6	1	2	1	23
23	5	0	7	6	6	1	24
24	6	0	7	8	9	1	26
25	0	3	5	2	8	1	26
26	2	5	0	4	2	1	31
27	7	4	0	3	7	1	31
28	0	3	2	3	6	1	31
29	4	4	3	0	3	1	31
30	3	2	4	0	5	1	31
31	0	0	0	0	0	0
